Route #1: 47 65 75 57 29 70 37
Route #2: 27 49 30 5 63 2
Route #3: 77 23 44 26 11 64 40 53
Route #4: 10 68 18 25 42 16 66 60 6
Route #5: 41 14 36 9 19 4 59 35 55 33 13
Route #6: 28 74 48 39 61 50
Route #7: 62 54 20 3 32 76 7
Route #8: 73 31 45 46 34 12
Route #9: 51 15 22 71 8 56 38 58 72
Route #10: 1 24 52 21 43 67 69 17
Cost 1272